19,0	0,0	11,7	8,3	0,0	0,0	0,0	0,0	0,0	5,9
12,8	13,2	0,0	19,4	6,7	0,0	0,0	12,1	0,0	0,0
0,0	0,0	13,9	0,0	14,0	19,3	0,0	0,0	6,9	0,0
7,7	0,0	6,5	0,0	0,0	0,0	18,3	0,0	0,0	0,0
0,0	7,4	0,0	17,0	5,1	0,0	0,0	12,5	0,0	0,0
0,0	9,8	16,1	0,0	15,8	19,5	0,0	0,0	13,6	0,0
0,0	10,6	0,0	7,8	0,0	0,0	7,7	0,0	0,0	16,5
18,4	0,0	16,9	0,0	0,0	0,0	0,0	0,0	0,0	17,7
0,0	15,9	0,0	19,7	18,1	0,0	0,0	6,7	0,0	0,0
0,0	0,0	10,5	0,0	0,0	18,9	9,8	0,0	0,0	17,8
									
3,1	4,5	2,7	2,7	3,2	2,7	4,5	4,6	3,7	2,7
